p wcnf 125 150 151 
1 -32 -41 0 
1 -7 79 0 
1 23 -4 0 
1 -39 -37 0 
1 -81 -7 0 
1 26 34 0 
1 42 117 0 
1 -64 86 0 
1 -112 44 0 
1 -107 16 0 
1 -87 -25 0 
1 80 -81 0 
1 -91 -50 0 
1 -61 -110 0 
1 -102 -10 0 
1 50 -11 0 
1 36 -73 0 
1 91 106 0 
1 -87 -40 0 
1 -16 72 0 
1 -46 105 0 
1 -37 -3 0 
1 -53 -65 0 
1 -87 43 0 
1 -100 -113 0 
1 -84 64 0 
1 99 -17 0 
1 13 -71 0 
1 -116 -33 0 
1 -110 -89 0 
1 116 43 0 
1 82 54 0 
1 -36 -35 0 
1 96 -81 0 
1 -98 102 0 
1 -49 83 0 
1 123 72 0 
1 125 -33 0 
1 -84 -123 0 
1 7 -49 0 
1 -86 21 0 
1 41 -13 0 
1 -92 84 0 
1 -113 -107 0 
1 104 -92 0 
1 -73 81 0 
1 -54 123 0 
1 -115 73 0 
1 100 6 0 
1 -11 -107 0 
1 -83 -2 0 
1 -10 -2 0 
1 -53 -97 0 
1 -63 109 0 
1 96 3 0 
1 -1 -15 0 
1 -112 -100 0 
1 -92 -118 0 
1 57 -1 0 
1 93 -56 0 
1 -51 94 0 
1 -95 -51 0 
1 56 55 0 
1 -85 33 0 
1 -65 13 0 
1 81 -93 0 
1 -15 -81 0 
1 25 -86 0 
1 43 10 0 
1 -89 -39 0 
1 72 88 0 
1 -124 -101 0 
1 10 -13 0 
1 101 91 0 
1 101 123 0 
1 104 7 0 
1 -21 -97 0 
1 -107 -118 0 
1 33 98 0 
1 99 -30 0 
1 -7 120 0 
1 93 -17 0 
1 -70 107 0 
1 -99 89 0 
1 82 -108 0 
1 -61 52 0 
1 -71 -111 0 
1 62 53 0 
1 -125 -82 0 
1 -3 7 0 
1 -54 -93 0 
1 66 11 0 
1 58 19 0 
1 -47 -20 0 
1 -32 -52 0 
1 -74 49 0 
1 -54 102 0 
1 -63 8 0 
1 -120 -2 0 
1 -6 95 0 
1 62 110 0 
1 9 -53 0 
1 36 -32 0 
1 57 55 0 
1 -9 -111 0 
1 104 16 0 
1 78 70 0 
1 65 -11 0 
1 -69 -52 0 
1 -27 -5 0 
1 60 64 0 
1 84 -18 0 
1 -50 48 0 
1 71 80 0 
1 28 103 0 
1 78 -72 0 
1 118 120 0 
1 48 3 0 
1 118 17 0 
1 -108 103 0 
1 8 124 0 
1 101 -3 0 
1 108 -86 0 
1 -22 -103 0 
1 -89 -72 0 
1 -29 -89 0 
1 93 38 0 
1 -93 22 0 
1 -20 -29 0 
1 24 -52 0 
1 52 -34 0 
1 -20 67 0 
1 -94 50 0 
1 -35 -56 0 
1 86 103 0 
1 -109 108 0 
1 -98 101 0 
1 20 25 0 
1 -85 -37 0 
1 13 -7 0 
1 78 56 0 
1 -61 72 0 
1 -121 -42 0 
1 105 -123 0 
1 120 99 0 
1 -9 -49 0 
1 58 -96 0 
1 -53 -27 0 
1 -116 118 0 
1 67 -110 0 
